data/solutions/recovery/wellformed/intermediate/binding/wellformed_intermediate_instance41/28.sol
Elapsed time: 100.48
Upper bound: 263156.0
Planning weighted value: 1022278150.0
C[0]=263156.0
C[1]=263152.0
C[2]=263146.0
C[3]=263110.0
C[4]=263085.0
C[5]=263069.0
C[6]=263019.0
C[7]=262985.0
C[8]=262975.0
C[9]=262908.0
C[10]=262764.0
C[11]=0.0
y[0]=2
y[1]=1
y[2]=7
y[3]=6
y[4]=4
y[5]=4
y[6]=2
y[7]=9
y[8]=0
y[9]=5
y[10]=0
y[11]=3
y[12]=9
y[13]=1
y[14]=2
y[15]=2
y[16]=5
y[17]=3
y[18]=9
y[19]=0
y[20]=1
y[21]=0
y[22]=2
y[23]=4
y[24]=8
y[25]=5
y[26]=3
y[27]=2
y[28]=3
y[29]=6
y[30]=3
y[31]=4
y[32]=0
y[33]=0
y[34]=10
y[35]=0
y[36]=0
y[37]=3
y[38]=7
y[39]=9
y[40]=8
y[41]=4
y[42]=0
y[43]=6
y[44]=3
y[45]=1
y[46]=3
y[47]=1
y[48]=2
y[49]=7
y[50]=9
y[51]=7
y[52]=0
y[53]=3
y[54]=8
y[55]=5
y[56]=5
y[57]=4
y[58]=1
y[59]=6
y[60]=4
y[61]=8
y[62]=9
y[63]=3
y[64]=0
y[65]=8
y[66]=8
y[67]=6
y[68]=9
y[69]=9
y[70]=2
y[71]=3
y[72]=6
y[73]=3
y[74]=8
y[75]=9
y[76]=10
y[77]=1
y[78]=5
y[79]=4
y[80]=7
y[81]=10
y[82]=3
y[83]=10
y[84]=7
y[85]=0
y[86]=4
y[87]=1
y[88]=9
y[89]=10
y[90]=0
y[91]=4
y[92]=8
y[93]=8
y[94]=4
y[95]=0
y[96]=3
y[97]=3
y[98]=5
y[99]=5
y[100]=3
y[101]=8
y[102]=6
y[103]=5
y[104]=8
y[105]=9
y[106]=9
y[107]=5
y[108]=8
y[109]=5
y[110]=0
y[111]=6
y[112]=1
y[113]=9
y[114]=2
y[115]=10
y[116]=9
y[117]=6
y[118]=1
y[119]=5
y[120]=4
y[121]=0
y[122]=0
y[123]=4
y[124]=7
y[125]=8
y[126]=9
y[127]=5
y[128]=10
y[129]=7
y[130]=9
y[131]=10
y[132]=6
y[133]=1
y[134]=0
y[135]=7
y[136]=7
y[137]=6
y[138]=10
y[139]=0
y[140]=8
y[141]=7
y[142]=10
y[143]=2
y[144]=7
y[145]=1
y[146]=9
y[147]=5
y[148]=10
y[149]=9
y[150]=3
y[151]=9
y[152]=8
y[153]=9
y[154]=2
y[155]=0
y[156]=9
y[157]=7
y[158]=4
y[159]=0
y[160]=3
y[161]=2
y[162]=7
y[163]=6
y[164]=3
y[165]=6
y[166]=7
y[167]=2
y[168]=0
y[169]=7
y[170]=1
y[171]=10
y[172]=6
y[173]=7
y[174]=6
y[175]=6
y[176]=8
y[177]=1
y[178]=5
y[179]=2
y[180]=10
y[181]=9
y[182]=2
y[183]=7
y[184]=9
y[185]=10
y[186]=7
y[187]=0
y[188]=2
y[189]=8
y[190]=9
y[191]=10
y[192]=3
y[193]=6
y[194]=7
y[195]=9
y[196]=10
y[197]=8
y[198]=7
y[199]=0
y[200]=0
y[201]=0
y[202]=9
y[203]=8
y[204]=2
y[205]=7
y[206]=0
y[207]=6
y[208]=7
y[209]=7
y[210]=7
y[211]=2
y[212]=3
y[213]=10
y[214]=3
y[215]=3
y[216]=1
y[217]=9
y[218]=7
y[219]=8
y[220]=5
y[221]=5
y[222]=4
y[223]=5
y[224]=4
y[225]=4
y[226]=7
y[227]=3
y[228]=9
y[229]=6
y[230]=0
y[231]=9
y[232]=8
y[233]=4
y[234]=5
y[235]=3
y[236]=3
y[237]=5
y[238]=0
y[239]=7
y[240]=10
y[241]=0
y[242]=2
y[243]=6
y[244]=2
y[245]=5
y[246]=3
y[247]=3
y[248]=1
y[249]=9
y[250]=8
y[251]=7
y[252]=3
y[253]=8
y[254]=9
y[255]=4
y[256]=0
y[257]=8
y[258]=10
y[259]=7
y[260]=4
y[261]=10
y[262]=4
y[263]=9
y[264]=2
y[265]=9
y[266]=4
y[267]=7
y[268]=0
y[269]=4
y[270]=9
y[271]=2
y[272]=2
y[273]=6
y[274]=0
y[275]=2
y[276]=6
y[277]=10
y[278]=2
y[279]=6
y[280]=6
y[281]=0
y[282]=5
y[283]=10
y[284]=4
y[285]=1
y[286]=9
y[287]=4
y[288]=10
y[289]=1
y[290]=10
y[291]=8
y[292]=1
y[293]=5
y[294]=4
y[295]=6
y[296]=1
y[297]=3
y[298]=2
y[299]=7
y[300]=5
y[301]=7
y[302]=2
y[303]=6
y[304]=10
y[305]=2
y[306]=10
y[307]=1
y[308]=3
y[309]=4
y[310]=0
y[311]=8
