data/solutions/recovery/wellformed/intermediate/binding/wellformed_intermediate_instance41/28.log

Log started (V12.6.3.0) Fri Apr 20 18:41:13 2018

New value for default parallel thread count: 1

Problem '/tmp/tmp4ASDUr.pyomo.lp' read.
Read time = 0.15 sec. (13.02 ticks)

Problem name         : /tmp/tmp4ASDUr.pyomo.lp
Objective sense      : Minimize
Variables            :    3758  [Nneg: 1,  Binary: 3744,  General Integer: 13]
Objective nonzeros   :       1
Linear constraints   :     650  [Less: 324,  Equal: 326]
  Nonzeros           :  965125
  RHS nonzeros       :     313

Variables            : Min LB: 0.000000         Max UB: 1.000000       
Objective nonzeros   : Min   : 1.000000         Max   : 1.000000       
Linear constraints   :
  Nonzeros           : Min   : 1.000000         Max   : 19298.00       
  RHS nonzeros       : Min   : 1.000000         Max   : 1.000000       
Tried aggregator 2 times.
MIP Presolve eliminated 597 rows and 3405 columns.
Aggregator did 11 substitutions.
Reduced MIP has 42 rows, 342 columns, and 693 nonzeros.
Reduced MIP has 341 binaries, 1 generals, 0 SOSs, and 0 indicators.
Presolve time = 0.04 sec. (57.48 ticks)
Found incumbent of value 606656.000000 after 0.08 sec. (79.90 ticks)
Probing time = 0.00 sec. (0.36 ticks)
Tried aggregator 1 time.
Reduced MIP has 42 rows, 342 columns, and 693 nonzeros.
Reduced MIP has 341 binaries, 1 generals, 0 SOSs, and 0 indicators.
Presolve time = 0.00 sec. (0.59 ticks)
Probing time = 0.00 sec. (0.36 ticks)
Clique table members: 31.
MIP emphasis: balance optimality and feasibility.
MIP search method: dynamic search.
Parallel mode: none, using 1 thread.
Root relaxation solution time = 0.00 sec. (0.67 ticks)

        Nodes                                         Cuts/
   Node  Left     Objective  IInf  Best Integer    Best Bound    ItCnt     Gap

*     0+    0                       606656.0000   249368.0000            58.89%
      0     0   263033.5455    20   606656.0000   263033.5455       73   56.64%
*     0+    0                       269493.0000   263033.5455             2.40%
      0     0   263034.0000    22   269493.0000      Fract: 5       84    2.40%
      0     0   263034.0000    19   269493.0000      Cuts: 23      130    2.40%
      0     0   263034.0000    31   269493.0000      Cuts: 17      182    2.40%
*     0+    0                       267324.0000   263034.0000             1.60%
*     0+    0                       267288.0000   263034.0000             1.59%
*     0+    0                       266021.0000   263034.0000             1.12%
*     0+    0                       265897.0000   263034.0000             1.08%
*     0+    0                       265689.0000   263034.0000             1.00%
*     0+    0                       265644.0000   263034.0000             0.98%
      0     2   263034.0000    18   265644.0000   263034.0000      182    0.98%
Elapsed time = 0.12 sec. (116.20 ticks, tree = 0.01 MB, solutions = 8)
*    40+   40                       265632.0000   263034.0000             0.98%
*    56    54      integral     0   265573.0000   263034.0000      486    0.96%
*    57    53      integral     0   265503.0000   263034.0000      487    0.93%
*    90+   82                       265208.0000   263034.0000             0.82%
*   120+  110                       264986.0000   263034.0000             0.74%
*   130+  117                       264896.0000   263034.0000             0.70%
*   144   124      integral     0   264789.0000   263034.0000      877    0.66%
*   317   281      integral     0   264772.0000   263034.0000     1275    0.66%
*   436   385      integral     0   264630.0000   263034.0000     1648    0.60%
*   536+  481                       264568.0000   263034.0000             0.58%
*   536+  481                       264528.0000   263034.0000             0.56%
*   536+  469                       264166.0000   263034.0000             0.43%
*   536+  422                       263814.0000   263034.0000             0.30%
*   536+  414                       263652.0000   263034.0000             0.23%
*   646+  505                       263593.0000   263034.0000             0.21%
*   648+  507                       263555.0000   263034.0000             0.20%
*   749+  369                       263384.0000   263034.0000             0.13%
    849   329   263233.0000    17   263384.0000   263034.0000     3492    0.13%
    850   329   263233.0000    17   263384.0000   263034.0000     3494    0.13%
    851   329   263233.0000    16   263384.0000   263034.0000     3496    0.13%
    852   329   263233.0000    15   263384.0000   263034.0000     3504    0.13%
    853   330   263233.0000    15   263384.0000   263034.0000     3507    0.13%
    854   330   263233.0000    15   263384.0000   263034.0000     3508    0.13%
    855   327        cutoff         263384.0000   263034.0000     3515    0.13%
    856   328   263233.0000    14   263384.0000   263034.0000     3516    0.13%
    857   328   263256.2222    13   263384.0000   263034.0000     3522    0.13%
*   949+  239                       263338.0000   263034.0000             0.12%
*  1049+  243                       263320.0000   263034.0000             0.11%
*  1049+  231                       263318.0000   263034.0000             0.11%
*  1149+  267                       263298.0000   263034.0000             0.10%
   1249   356   263233.0000    14   263298.0000   263034.0000     4793    0.10%
Elapsed time = 1.01 sec. (1094.88 ticks, tree = 0.12 MB, solutions = 29)
  13398 10905   263255.0000    13   263298.0000   263034.0000    30445    0.10%
  13399 10906   263255.0000    13   263298.0000   263034.0000    30446    0.10%
  13400 10907   263255.0000    13   263298.0000   263034.0000    30447    0.10%
  13401 10908   263255.0000    13   263298.0000   263034.0000    30448    0.10%
  13402 10909   263255.0000    13   263298.0000   263034.0000    30450    0.10%
  13403 10910   263255.0000    13   263298.0000   263034.0000    30451    0.10%
  13404 10911   263255.0000    13   263298.0000   263034.0000    30452    0.10%
  13405 10912   263255.0000    13   263298.0000   263034.0000    30454    0.10%
  13406 10911        cutoff         263298.0000   263034.0000    30456    0.10%
  13407 10912   263255.0000    12   263298.0000   263034.0000    30461    0.10%
Elapsed time = 1.89 sec. (2049.00 ticks, tree = 3.69 MB, solutions = 29)
  29733 24380   263034.0000    17   263298.0000   263034.0000    64961    0.10%
  29734 24381   263034.0000    17   263298.0000   263034.0000    64963    0.10%
  29735 24382   263034.0000    17   263298.0000   263034.0000    64964    0.10%
  29736 24383   263034.0000    17   263298.0000   263034.0000    64967    0.10%
  29737 24384   263034.0000    17   263298.0000   263034.0000    64968    0.10%
  29738 24385   263034.0000    17   263298.0000   263034.0000    64981    0.10%
  29739 24386   263034.0000    18   263298.0000   263034.0000    64985    0.10%
  29740 24387   263034.0000    18   263298.0000   263034.0000    64986    0.10%
  29741 24388   263034.0000    18   263298.0000   263034.0000    64987    0.10%
  29742 24389   263034.0000    18   263298.0000   263034.0000    64988    0.10%
Elapsed time = 2.82 sec. (3003.40 ticks, tree = 8.20 MB, solutions = 29)
  45721 37601   263063.1000    16   263298.0000   263034.0000    98598    0.10%
  45722 37602   263063.1000    16   263298.0000   263034.0000    98599    0.10%
  45723 37603   263063.1000    16   263298.0000   263034.0000    98601    0.10%
  45724 37604   263070.7778    14   263298.0000   263034.0000    98604    0.10%
  45725 37605   263070.7778    14   263298.0000   263034.0000    98605    0.10%
  45726 37606   263070.7778    15   263298.0000   263034.0000    98607    0.10%
  45727 37607   263070.7778    14   263298.0000   263034.0000    98608    0.10%
  45728 37608   263070.7778    15   263298.0000   263034.0000    98609    0.10%
  45729 37609   263070.7778    15   263298.0000   263034.0000    98611    0.10%
  45730 37610   263070.7778    15   263298.0000   263034.0000    98612    0.10%
Elapsed time = 3.73 sec. (3957.52 ticks, tree = 13.09 MB, solutions = 29)
  62006 51059   263178.1250    13   263298.0000   263034.0000   130131    0.10%
  62007 51060   263178.1250    13   263298.0000   263034.0000   130132    0.10%
  62008 51061   263178.1250    13   263298.0000   263034.0000   130134    0.10%
  62009 51060        cutoff         263298.0000   263034.0000   130136    0.10%
  62010 51059    infeasible         263298.0000   263034.0000   130136    0.10%
  62011 51060   263174.8889    16   263298.0000   263034.0000   130139    0.10%
  62012 51061   263174.8889    16   263298.0000   263034.0000   130140    0.10%
  62013 51062   263174.8889    16   263298.0000   263034.0000   130143    0.10%
  62014 51063   263174.8889    15   263298.0000   263034.0000   130146    0.10%
  62015 51064   263174.8889    16   263298.0000   263034.0000   130149    0.10%
Elapsed time = 4.65 sec. (4911.64 ticks, tree = 17.13 MB, solutions = 29)
  78635 64867        cutoff         263298.0000   263034.0000   164741    0.10%
  78636 64868   263232.8750    14   263298.0000   263034.0000   164742    0.10%
  78637 64869   263232.8750    14   263298.0000   263034.0000   164743    0.10%
  78638 64870   263232.8750    14   263298.0000   263034.0000   164747    0.10%
  78639 64869        cutoff         263298.0000   263034.0000   164749    0.10%
  78640 64870   263232.8750    15   263298.0000   263034.0000   164753    0.10%
  78641 64871   263232.8750    15   263298.0000   263034.0000   164754    0.10%
  78642 64870        cutoff         263298.0000   263034.0000   164756    0.10%
  78643 64871   263232.8750    15   263298.0000   263034.0000   164758    0.10%
  78644 64872   263232.8750    15   263298.0000   263034.0000   164759    0.10%
Elapsed time = 5.57 sec. (5865.81 ticks, tree = 21.28 MB, solutions = 29)
  95318 78358   263113.0000    15   263298.0000   263034.0000   198395    0.10%
  95319 78359   263113.0000    15   263298.0000   263034.0000   198396    0.10%
  95320 78360   263113.0000    14   263298.0000   263034.0000   198397    0.10%
  95321 78361   263113.0000    15   263298.0000   263034.0000   198398    0.10%
  95322 78362   263113.0000    16   263298.0000   263034.0000   198400    0.10%
  95323 78363   263113.0000    16   263298.0000   263034.0000   198403    0.10%
  95324 78364   263113.0000    15   263298.0000   263034.0000   198406    0.10%
  95325 78365   263113.0000    16   263298.0000   263034.0000   198409    0.10%
  95326 78366   263113.0000    15   263298.0000   263034.0000   198413    0.10%
  95327 78367   263113.0000    15   263298.0000   263034.0000   198414    0.10%
Elapsed time = 6.48 sec. (6820.20 ticks, tree = 27.30 MB, solutions = 29)
 112649 92590   263160.5556    15   263298.0000   263034.0000   235766    0.10%
 112650 92591   263160.5556    15   263298.0000   263034.0000   235767    0.10%
 112651 92592   263160.5556    15   263298.0000   263034.0000   235768    0.10%
 112652 92593   263160.5556    14   263298.0000   263034.0000   235769    0.10%
 112653 92594   263160.5556    15   263298.0000   263034.0000   235770    0.10%
 112654 92595   263160.5556    15   263298.0000   263034.0000   235771    0.10%
 112655 92596   263160.5556    15   263298.0000   263034.0000   235772    0.10%
 112656 92597   263160.5556    15   263298.0000   263034.0000   235773    0.10%
 112657 92598   263160.5556    15   263298.0000   263034.0000   235774    0.10%
 112658 92599   263160.5556    15   263298.0000   263034.0000   235775    0.10%
Elapsed time = 7.39 sec. (7774.24 ticks, tree = 31.52 MB, solutions = 29)
 130387 106955   263078.3000    16   263298.0000   263034.0000   272665    0.10%
 130388 106956   263272.0000    15   263298.0000   263034.0000   272667    0.10%
 130389 106957   263272.0000    17   263298.0000   263034.0000   272671    0.10%
 130390 106958   263272.0000    17   263298.0000   263034.0000   272673    0.10%
 130391 106959   263272.0000    15   263298.0000   263034.0000   272677    0.10%
 130392 106960   263272.0000    16   263298.0000   263034.0000   272679    0.10%
 130393 106961   263272.0000    16   263298.0000   263034.0000   272680    0.10%
 130394 106962   263272.0000    16   263298.0000   263034.0000   272683    0.10%
 130395 106963   263272.0000    16   263298.0000   263034.0000   272684    0.10%
 130396 106964   263272.0000    16   263298.0000   263034.0000   272689    0.10%
Elapsed time = 8.30 sec. (8728.38 ticks, tree = 35.91 MB, solutions = 29)
 145415 119047        cutoff         263298.0000   263034.0000   305121    0.10%
 145416 119046        cutoff         263298.0000   263034.0000   305122    0.10%
 145417 119047   263034.0000    18   263298.0000   263034.0000   305126    0.10%
 145418 119048   263034.0000    18   263298.0000   263034.0000   305130    0.10%
 145419 119049   263092.0000    16   263298.0000   263034.0000   305132    0.10%
 145420 119050   263092.0000    16   263298.0000   263034.0000   305134    0.10%
 145421 119051   263092.0000    16   263298.0000   263034.0000   305135    0.10%
 145422 119052   263092.0000    16   263298.0000   263034.0000   305136    0.10%
 145423 119053   263092.0000    16   263298.0000   263034.0000   305138    0.10%
 189215 154137   263285.0000    13   263298.0000   263034.0000   400680    0.10%
Elapsed time = 12.01 sec. (12543.11 ticks, tree = 51.85 MB, solutions = 29)
 251083 205307   263219.2857    12   263298.0000   263034.0000   534767    0.10%
 251084 205308   263219.2857    12   263298.0000   263034.0000   534768    0.10%
 251085 205308   263219.2857    12   263298.0000   263034.0000   534769    0.10%
 251086 205307        cutoff         263298.0000   263034.0000   534770    0.10%
 251087 205306        cutoff         263298.0000   263034.0000   534776    0.10%
 251088 205305        cutoff         263298.0000   263034.0000   534778    0.10%
 251089 205306   263034.0000    18   263298.0000   263034.0000   534785    0.10%
 251090 205307   263047.9000    17   263298.0000   263034.0000   534788    0.10%
 251091 205308   263047.9000    18   263298.0000   263034.0000   534790    0.10%
 251092 205309   263047.9000    18   263298.0000   263034.0000   534791    0.10%
Elapsed time = 15.71 sec. (16358.40 ticks, tree = 69.79 MB, solutions = 29)
 301077 243780        cutoff         263298.0000   263034.0000   640690    0.10%
 301078 243781   263034.0000    16   263298.0000   263034.0000   640691    0.10%
 301079 243782   263048.7778    15   263298.0000   263034.0000   640694    0.10%
 301080 243783   263048.7778    15   263298.0000   263034.0000   640695    0.10%
 301081 243784   263048.7778    16   263298.0000   263034.0000   640696    0.10%
 301082 243785   263048.7778    16   263298.0000   263034.0000   640697    0.10%
 301083 243786   263048.7778    16   263298.0000   263034.0000   640698    0.10%
 301084 243787   263048.7778    16   263298.0000   263034.0000   640699    0.10%
 301085 243788   263048.7778    16   263298.0000   263034.0000   640700    0.10%
 301086 243789   263048.7778    16   263298.0000   263034.0000   640701    0.10%
Elapsed time = 19.44 sec. (20173.51 ticks, tree = 83.05 MB, solutions = 29)
 357703 289761   263186.6667    15   263298.0000   263034.0000   762467    0.10%
 357704 289762   263186.6667    15   263298.0000   263034.0000   762468    0.10%
 357705 289763   263186.6667    14   263298.0000   263034.0000   762470    0.10%
 357706 289764   263186.6667    15   263298.0000   263034.0000   762472    0.10%
 357707 289763        cutoff         263298.0000   263034.0000   762479    0.10%
 357708 289764   263186.6667    15   263298.0000   263034.0000   762481    0.10%
 357709 289765   263186.6667    16   263298.0000   263034.0000   762484    0.10%
 357710 289766   263186.6667    16   263298.0000   263034.0000   762486    0.10%
 357711 289766   263186.6667    16   263298.0000   263034.0000   762487    0.10%
 357712 289765        cutoff         263298.0000   263034.0000   762489    0.10%
Elapsed time = 23.12 sec. (23988.66 ticks, tree = 98.77 MB, solutions = 29)
 415112 335010   263165.8571    11   263298.0000   263034.0000   887173    0.10%
 415113 335011   263165.8571    11   263298.0000   263034.0000   887174    0.10%
 415114 335012   263165.8571    11   263298.0000   263034.0000   887175    0.10%
 415115 335013   263165.8571    11   263298.0000   263034.0000   887177    0.10%
 415116 335014   263165.8571    11   263298.0000   263034.0000   887178    0.10%
 415117 335015   263165.8571    11   263298.0000   263034.0000   887179    0.10%
 415118 335014        cutoff         263298.0000   263034.0000   887180    0.10%
 415119 335013        cutoff         263298.0000   263034.0000   887182    0.10%
 415120 335014   263034.0000    16   263298.0000   263034.0000   887187    0.10%
 415121 335015   263034.0000    17   263298.0000   263034.0000   887189    0.10%
Elapsed time = 26.87 sec. (27803.77 ticks, tree = 114.75 MB, solutions = 29)
*423849+256533                       263251.0000   263034.0000             0.08%
*433849+259578                       263247.0000   263034.0000             0.08%
 467610 285721   263034.0000    17   263247.0000   263034.0000   997504    0.08%
 467611 285722   263034.0000    17   263247.0000   263034.0000   997506    0.08%
 467612 285723   263034.0000    17   263247.0000   263034.0000   997507    0.08%
 467613 285724   263034.0000    17   263247.0000   263034.0000   997508    0.08%
 467614 285724   263056.8750    16   263247.0000   263034.0000   997519    0.08%
 467615 285725   263056.8750    14   263247.0000   263034.0000   997521    0.08%
 467616 285726   263056.8750    14   263247.0000   263034.0000   997522    0.08%
 467617 285727   263056.8750    15   263247.0000   263034.0000   997523    0.08%
 467618 285728   263056.8750    16   263247.0000   263034.0000   997525    0.08%
 467619 285729   263056.8750    16   263247.0000   263034.0000   997526    0.08%
Elapsed time = 30.64 sec. (31619.88 ticks, tree = 99.35 MB, solutions = 31)
 521832 328909   263110.8000    17   263247.0000   263034.0000  1115076    0.08%
 521833 328910   263110.8000    17   263247.0000   263034.0000  1115078    0.08%
 521834 328911   263110.8000    17   263247.0000   263034.0000  1115080    0.08%
 521835 328912   263110.8000    17   263247.0000   263034.0000  1115082    0.08%
 521836 328913   263149.0000    14   263247.0000   263034.0000  1115088    0.08%
 521837 328914   263149.0000    13   263247.0000   263034.0000  1115089    0.08%
 521838 328915   263149.0000    13   263247.0000   263034.0000  1115090    0.08%
 521839 328916   263149.0000    13   263247.0000   263034.0000  1115094    0.08%
 521840 328916   263149.0000    14   263247.0000   263034.0000  1115096    0.08%
 521841 328917   263185.0000    11   263247.0000   263034.0000  1115098    0.08%
Elapsed time = 34.38 sec. (35435.26 ticks, tree = 112.31 MB, solutions = 31)
 570609 363199   263151.2222    15   263247.0000   263034.0000  1221483    0.08%
 570610 363198        cutoff         263247.0000   263034.0000  1221484    0.08%
 570611 363199   263210.6250    13   263247.0000   263034.0000  1221486    0.08%
 570612 363198        cutoff         263247.0000   263034.0000  1221487    0.08%
 570613 363197        cutoff         263247.0000   263034.0000  1221489    0.08%
 570614 363196        cutoff         263247.0000   263034.0000  1221494    0.08%
 570615 363195        cutoff         263247.0000   263034.0000  1221499    0.08%
 570616 363196   263122.6667    15   263247.0000   263034.0000  1221503    0.08%
 570617 363197   263122.6667    15   263247.0000   263034.0000  1221504    0.08%
 570618 363198   263122.6667    15   263247.0000   263034.0000  1221505    0.08%
Elapsed time = 38.11 sec. (39251.20 ticks, tree = 122.73 MB, solutions = 31)
*594349+229572                       263183.0000   263034.0000             0.06%
*594349+189945                       263156.0000   263034.0000             0.05%
 612421 201642        cutoff         263156.0000   263034.0000  1314871    0.05%
 612422 201641        cutoff         263156.0000   263034.0000  1314878    0.05%
 612423 201642   263047.9000    17   263156.0000   263034.0000  1314886    0.05%
 612424 201643   263047.9000    18   263156.0000   263034.0000  1314888    0.05%
 612425 201644   263047.9000    16   263156.0000   263034.0000  1314892    0.05%
 612426 201645   263047.9000    17   263156.0000   263034.0000  1314893    0.05%
 612427 201646   263047.9000    16   263156.0000   263034.0000  1314894    0.05%
 612428 201647   263047.9000    17   263156.0000   263034.0000  1314896    0.05%
 612429 201648   263047.9000    17   263156.0000   263034.0000  1314897    0.05%
 612430 201649   263047.9000    17   263156.0000   263034.0000  1314898    0.05%
Elapsed time = 41.95 sec. (43067.65 ticks, tree = 73.53 MB, solutions = 33)
 646927 220987   263151.8889    14   263156.0000   263034.0000  1392457    0.05%
 646928 220988   263151.8889    15   263156.0000   263034.0000  1392458    0.05%
 646929 220989   263151.8889    15   263156.0000   263034.0000  1392459    0.05%
 646930 220988        cutoff         263156.0000   263034.0000  1392461    0.05%
 646931 220987        cutoff         263156.0000   263034.0000  1392463    0.05%
 646932 220986    infeasible         263156.0000   263034.0000  1392463    0.05%
 646933 220987   263034.0000    18   263156.0000   263034.0000  1392471    0.05%
 646934 220988   263080.4000    17   263156.0000   263034.0000  1392474    0.05%
 646935 220989   263080.4000    17   263156.0000   263034.0000  1392475    0.05%
 646936 220990   263080.4000    17   263156.0000   263034.0000  1392477    0.05%
Elapsed time = 45.81 sec. (46883.71 ticks, tree = 79.38 MB, solutions = 33)
 688564 245939   263054.1000    16   263156.0000   263034.0000  1483526    0.05%
 688565 245940   263054.1000    16   263156.0000   263034.0000  1483532    0.05%
 688566 245941   263054.1000    17   263156.0000   263034.0000  1483539    0.05%
 688567 245942   263054.1000    17   263156.0000   263034.0000  1483540    0.05%
 688568 245943   263054.1000    17   263156.0000   263034.0000  1483541    0.05%
 688569 245944   263054.1000    17   263156.0000   263034.0000  1483543    0.05%
 688570 245945   263054.1000    18   263156.0000   263034.0000  1483545    0.05%
 688571 245946   263054.1000    17   263156.0000   263034.0000  1483550    0.05%
 688572 245945        cutoff         263156.0000   263034.0000  1483552    0.05%
 688573 245944    infeasible         263156.0000   263034.0000  1483552    0.05%
Elapsed time = 49.75 sec. (50698.87 ticks, tree = 86.94 MB, solutions = 33)
 725573 267680   263128.6667    15   263156.0000   263034.0000  1562413    0.05%
 725574 267681   263128.6667    15   263156.0000   263034.0000  1562415    0.05%
 725575 267680        cutoff         263156.0000   263034.0000  1562416    0.05%
 725576 267679        cutoff         263156.0000   263034.0000  1562423    0.05%
 725577 267678        cutoff         263156.0000   263034.0000  1562426    0.05%
 725578 267678   263036.0000    15   263156.0000   263034.0000  1562439    0.05%
 725579 267679   263074.0000    13   263156.0000   263034.0000  1562441    0.05%
 725580 267680   263074.0000    14   263156.0000   263034.0000  1562443    0.05%
 725581 267681   263074.0000    14   263156.0000   263034.0000  1562444    0.05%
 725582 267682   263074.0000    14   263156.0000   263034.0000  1562446    0.05%
Elapsed time = 53.67 sec. (54516.37 ticks, tree = 93.52 MB, solutions = 33)
 768955 295450   263133.2000    17   263156.0000   263034.0000  1658211    0.05%
 768956 295451   263133.2000    16   263156.0000   263034.0000  1658215    0.05%
 768957 295452   263133.2000    17   263156.0000   263034.0000  1658219    0.05%
 768958 295453   263133.2000    17   263156.0000   263034.0000  1658220    0.05%
 768959 295454   263133.2000    17   263156.0000   263034.0000  1658222    0.05%
 768960 295455   263133.2000    16   263156.0000   263034.0000  1658224    0.05%
 768961 295456   263133.2000    16   263156.0000   263034.0000  1658225    0.05%
 768962 295457   263133.2000    17   263156.0000   263034.0000  1658229    0.05%
 768963 295458   263133.2000    17   263156.0000   263034.0000  1658230    0.05%
 768964 295459   263133.2000    16   263156.0000   263034.0000  1658236    0.05%
Elapsed time = 57.51 sec. (58331.58 ticks, tree = 101.74 MB, solutions = 33)
 807003 320480   263069.7000    18   263156.0000   263034.0000  1745507    0.05%
 807004 320481   263069.7000    17   263156.0000   263034.0000  1745511    0.05%
 807005 320482   263069.7000    18   263156.0000   263034.0000  1745513    0.05%
 807006 320483   263069.7000    18   263156.0000   263034.0000  1745514    0.05%
 807007 320484   263069.7000    18   263156.0000   263034.0000  1745515    0.05%
 807008 320485   263069.7000    18   263156.0000   263034.0000  1745516    0.05%
 807009 320486   263069.7000    18   263156.0000   263034.0000  1745517    0.05%
 807010 320487   263069.7000    17   263156.0000   263034.0000  1745519    0.05%
 807011 320488   263069.7000    18   263156.0000   263034.0000  1745521    0.05%
 807012 320489   263069.7000    18   263156.0000   263034.0000  1745522    0.05%
Elapsed time = 61.36 sec. (62147.86 ticks, tree = 109.22 MB, solutions = 33)
 844509 340962   263142.6667    17   263156.0000   263034.0000  1831005    0.05%
 844510 340961    infeasible         263156.0000   263034.0000  1831005    0.05%
 844511 340962   263142.6667    15   263156.0000   263034.0000  1831006    0.05%
 844512 340963   263142.6667    15   263156.0000   263034.0000  1831008    0.05%
 844513 340964   263152.0000    12   263156.0000   263034.0000  1831012    0.05%
 844514 340965   263152.0000    12   263156.0000   263034.0000  1831021    0.05%
 844515 340966   263152.0000    13   263156.0000   263034.0000  1831023    0.05%
 844516 340967   263152.0000    12   263156.0000   263034.0000  1831025    0.05%
 844517 340968   263152.0000    12   263156.0000   263034.0000  1831026    0.05%
 844518 340969   263152.0000    13   263156.0000   263034.0000  1831027    0.05%
Elapsed time = 65.29 sec. (65963.33 ticks, tree = 115.42 MB, solutions = 33)
 886859 366646   263145.0000    16   263156.0000   263034.0000  1925668    0.05%
 886860 366645    infeasible         263156.0000   263034.0000  1925668    0.05%
 886861 366646   263145.0000    16   263156.0000   263034.0000  1925670    0.05%
 886862 366647   263145.0000    16   263156.0000   263034.0000  1925671    0.05%
 886863 366647   263145.0000    16   263156.0000   263034.0000  1925672    0.05%
 886864 366647   263145.0000    16   263156.0000   263034.0000  1925673    0.05%
 886865 366646        cutoff         263156.0000   263034.0000  1925675    0.05%
 886866 366647   263133.2000    18   263156.0000   263034.0000  1925679    0.05%
 886867 366648   263133.2000    18   263156.0000   263034.0000  1925680    0.05%
 886868 366649   263148.2222    16   263156.0000   263034.0000  1925681    0.05%
Elapsed time = 69.13 sec. (69779.67 ticks, tree = 123.17 MB, solutions = 33)
 922028 386719   263087.8889    15   263156.0000   263034.0000  2006990    0.05%
 922029 386720   263131.3750    14   263156.0000   263034.0000  2006992    0.05%
 922030 386721   263131.3750    14   263156.0000   263034.0000  2006997    0.05%
 922031 386722   263131.3750    14   263156.0000   263034.0000  2007001    0.05%
 922032 386723   263131.3750    14   263156.0000   263034.0000  2007002    0.05%
 922033 386724   263131.3750    15   263156.0000   263034.0000  2007004    0.05%
 922034 386725   263131.3750    15   263156.0000   263034.0000  2007005    0.05%
 922035 386726   263131.3750    15   263156.0000   263034.0000  2007006    0.05%
 922036 386727   263131.3750    15   263156.0000   263034.0000  2007007    0.05%
 922037 386728   263131.3750    14   263156.0000   263034.0000  2007012    0.05%
Elapsed time = 73.03 sec. (73594.80 ticks, tree = 129.22 MB, solutions = 33)
 973654 426117        cutoff         263156.0000   263034.0000  2124511    0.05%
 973655 426116        cutoff         263156.0000   263034.0000  2124518    0.05%
 973656 426117   263075.4000    16   263156.0000   263034.0000  2124521    0.05%
 973657 426118   263075.4000    17   263156.0000   263034.0000  2124524    0.05%
 973658 426119   263075.4000    17   263156.0000   263034.0000  2124529    0.05%
 973659 426120   263075.4000    17   263156.0000   263034.0000  2124533    0.05%
 973660 426119        cutoff         263156.0000   263034.0000  2124535    0.05%
 973661 426120   263075.4000    17   263156.0000   263034.0000  2124540    0.05%
 973662 426121   263075.4000    18   263156.0000   263034.0000  2124543    0.05%
 973663 426122   263075.4000    17   263156.0000   263034.0000  2124546    0.05%
Elapsed time = 77.27 sec. (77410.83 ticks, tree = 143.70 MB, solutions = 33)
 1021097 461505        cutoff         263156.0000   263034.0000  2225970    0.05%
 1021098 461504        cutoff         263156.0000   263034.0000  2225975    0.05%
 1021099 461503        cutoff         263156.0000   263034.0000  2225982    0.05%
 1021100 461502        cutoff         263156.0000   263034.0000  2225984    0.05%
 1021101 461501        cutoff         263156.0000   263034.0000  2225987    0.05%
 1021102 461500        cutoff         263156.0000   263034.0000  2225996    0.05%
 1021103 461499        cutoff         263156.0000   263034.0000  2225999    0.05%
 1021104 461498        cutoff         263156.0000   263034.0000  2226006    0.05%
 1021105 461497        cutoff         263156.0000   263034.0000  2226011    0.05%
 1021106 461496        cutoff         263156.0000   263034.0000  2226014    0.05%
Elapsed time = 81.32 sec. (81231.42 ticks, tree = 154.38 MB, solutions = 33)
 1064805 492086        cutoff         263156.0000   263034.0000  2316197    0.05%
 1064806 492085        cutoff         263156.0000   263034.0000  2316198    0.05%
 1064807 492086   263034.0000    17   263156.0000   263034.0000  2316204    0.05%
 1064808 492087   263108.0000    14   263156.0000   263034.0000  2316217    0.05%
 1064809 492088   263108.0000    13   263156.0000   263034.0000  2316219    0.05%
 1064810 492089   263108.0000    14   263156.0000   263034.0000  2316221    0.05%
 1064811 492090   263108.0000    13   263156.0000   263034.0000  2316223    0.05%
 1064812 492089        cutoff         263156.0000   263034.0000  2316225    0.05%
 1064813 492088        cutoff         263156.0000   263034.0000  2316227    0.05%
 1064814 492089   263034.0000    18   263156.0000   263034.0000  2316235    0.05%
Elapsed time = 85.07 sec. (85048.04 ticks, tree = 166.99 MB, solutions = 33)
 1117985 531931   263133.2000    17   263156.0000   263034.0000  2425102    0.05%
 1117986 531932   263133.2000    17   263156.0000   263034.0000  2425103    0.05%
 1117987 531933   263133.2000    17   263156.0000   263034.0000  2425104    0.05%
 1117988 531934   263133.2000    17   263156.0000   263034.0000  2425105    0.05%
 1117989 531935   263133.2000    17   263156.0000   263034.0000  2425106    0.05%
 1117990 531936   263133.2000    17   263156.0000   263034.0000  2425107    0.05%
 1117991 531937   263133.2000    17   263156.0000   263034.0000  2425108    0.05%
 1117992 531938   263133.2000    17   263156.0000   263034.0000  2425110    0.05%
 1117993 531939   263133.2000    17   263156.0000   263034.0000  2425111    0.05%
 1117994 531940   263152.8750    13   263156.0000   263034.0000  2425114    0.05%
Elapsed time = 88.78 sec. (88863.14 ticks, tree = 179.11 MB, solutions = 33)
 1159379 563927   263153.4444    15   263156.0000   263034.0000  2517409    0.05%
 1159380 563928   263153.4444    15   263156.0000   263034.0000  2517410    0.05%
 1159381 563929   263153.4444    15   263156.0000   263034.0000  2517411    0.05%
 1159382 563930   263153.4444    15   263156.0000   263034.0000  2517415    0.05%
 1159383 563931   263153.4444    15   263156.0000   263034.0000  2517417    0.05%
 1159384 563932   263153.4444    15   263156.0000   263034.0000  2517419    0.05%
 1159385 563933   263153.4444    15   263156.0000   263034.0000  2517423    0.05%
 1159386 563934   263153.4444    15   263156.0000   263034.0000  2517424    0.05%
 1159387 563935   263153.4444    14   263156.0000   263034.0000  2517429    0.05%
 1159388 563936   263153.4444    15   263156.0000   263034.0000  2517435    0.05%
Elapsed time = 92.61 sec. (92678.43 ticks, tree = 192.64 MB, solutions = 33)
 1202592 593768   263067.1000    17   263156.0000   263034.0000  2617591    0.05%
 1202593 593769   263067.1000    17   263156.0000   263034.0000  2617592    0.05%
 1202594 593770   263067.1000    18   263156.0000   263034.0000  2617594    0.05%
 1202595 593769        cutoff         263156.0000   263034.0000  2617595    0.05%
 1202596 593768        cutoff         263156.0000   263034.0000  2617599    0.05%
 1202597 593767    infeasible         263156.0000   263034.0000  2617599    0.05%
 1202598 593766        cutoff         263156.0000   263034.0000  2617612    0.05%
 1202599 593765        cutoff         263156.0000   263034.0000  2617616    0.05%
 1202600 593764        cutoff         263156.0000   263034.0000  2617622    0.05%
 1202601 593763        cutoff         263156.0000   263034.0000  2617632    0.05%
Elapsed time = 96.21 sec. (96496.12 ticks, tree = 201.57 MB, solutions = 33)
 1249183 624020   263092.4444    14   263156.0000   263034.0000  2718190    0.05%
 1249184 624021   263092.4444    15   263156.0000   263034.0000  2718192    0.05%
 1249185 624022   263092.4444    15   263156.0000   263034.0000  2718193    0.05%
 1249186 624023   263092.4444    15   263156.0000   263034.0000  2718194    0.05%
 1249187 624024   263092.4444    15   263156.0000   263034.0000  2718195    0.05%
 1249188 624025   263092.4444    15   263156.0000   263034.0000  2718196    0.05%
 1249189 624026   263092.4444    15   263156.0000   263034.0000  2718198    0.05%
 1249190 624027   263092.4444    15   263156.0000   263034.0000  2718200    0.05%
 1249191 624028   263092.4444    15   263156.0000   263034.0000  2718203    0.05%
 1249192 624029   263092.4444    14   263156.0000   263034.0000  2718205    0.05%
Elapsed time = 99.97 sec. (100311.24 ticks, tree = 210.71 MB, solutions = 33)

Root node processing (before b&c):
  Real time             =    0.12 sec. (117.06 ticks)
Sequential b&c:
  Real time             =   99.88 sec. (100243.60 ticks)
                          ------------
Total (root+branch&cut) =  100.00 sec. (100360.66 ticks)

Solution pool: 33 solutions saved.

MIP - Time limit exceeded, integer feasible:  Objective =  2.6315600000e+05
Current MIP best bound =  2.6303400000e+05 (gap = 122, 0.05%)
Solution time =  100.00 sec.  Iterations = 2719172  Nodes = 1249676 (624408)
Deterministic time = 100360.67 ticks  (1003.59 ticks/sec)


Incumbent solution written to file '/tmp/tmpBYmpO7.cplex.sol'.
